c colouring generated by benchmark framework
p edge 225 5180
v 1 7
v 2 17
v 3 16
v 4 21
v 5 4
v 6 15
v 7 11
v 8 8
v 9 14
v 10 9
v 11 12
v 12 13
v 13 2
v 14 20
v 15 10
v 16 16
v 17 4
v 18 18
v 19 23
v 20 5
v 21 2
v 22 1
v 23 6
v 24 11
v 25 10
v 26 8
v 27 17
v 28 12
v 29 3
v 30 9
v 31 20
v 32 15
v 33 21
v 34 13
v 35 12
v 36 11
v 37 10
v 38 3
v 39 9
v 40 22
v 41 6
v 42 4
v 43 7
v 44 5
v 45 14
v 46 8
v 47 13
v 48 12
v 49 3
v 50 2
v 51 18
v 52 16
v 53 5
v 54 17
v 55 7
v 56 1
v 57 21
v 58 11
v 59 6
v 60 23
v 61 22
v 62 2
v 63 8
v 64 5
v 65 0
v 66 1
v 67 3
v 68 4
v 69 20
v 70 6
v 71 23
v 72 7
v 73 9
v 74 13
v 75 21
v 76 10
v 77 16
v 78 7
v 79 2
v 80 23
v 81 6
v 82 15
v 83 0
v 84 3
v 85 1
v 86 14
v 87 12
v 88 17
v 89 4
v 90 20
v 91 23
v 92 6
v 93 9
v 94 15
v 95 1
v 96 3
v 97 14
v 98 7
v 99 8
v 100 2
v 101 0
v 102 5
v 103 10
v 104 19
v 105 22
v 106 15
v 107 1
v 108 22
v 109 4
v 110 19
v 111 9
v 112 8
v 113 2
v 114 0
v 115 5
v 116 7
v 117 6
v 118 13
v 119 14
v 120 3
v 121 19
v 122 7
v 123 14
v 124 9
v 125 13
v 126 0
v 127 22
v 128 17
v 129 1
v 130 4
v 131 2
v 132 15
v 133 3
v 134 8
v 135 16
v 136 12
v 137 18
v 138 20
v 139 8
v 140 16
v 141 5
v 142 4
v 143 23
v 144 2
v 145 19
v 146 3
v 147 1
v 148 0
v 149 17
v 150 11
v 151 17
v 152 10
v 153 3
v 154 22
v 155 15
v 156 8
v 157 2
v 158 14
v 159 7
v 160 0
v 161 5
v 162 11
v 163 6
v 164 1
v 165 13
v 166 18
v 167 11
v 168 2
v 169 6
v 170 3
v 171 4
v 172 0
v 173 1
v 174 10
v 175 17
v 176 9
v 177 20
v 178 5
v 179 7
v 180 12
v 181 21
v 182 5
v 183 0
v 184 1
v 185 7
v 186 10
v 187 13
v 188 11
v 189 6
v 190 18
v 191 4
v 192 14
v 193 8
v 194 9
v 195 15
v 196 14
v 197 9
v 198 13
v 199 10
v 200 6
v 201 12
v 202 5
v 203 20
v 204 15
v 205 3
v 206 16
v 207 0
v 208 1
v 209 11
v 210 8
v 211 4
v 212 20
v 213 15
v 214 19
v 215 8
v 216 16
v 217 9
v 218 12
v 219 5
v 220 23
v 221 11
v 222 3
v 223 14
v 224 10
v 225 18
